# Solution for model GasLib-40
# Objective value = 1.3435097569934710e+01
loadshed[innode_1] 0
loadshed[innode_2] 0
loadshed[innode_3] 0
loadshed[innode_4] 0
loadshed[innode_5] 0
loadshed[innode_6] 0
loadshed[innode_7] 0
loadshed[innode_8] 0
loadshed[source_1] -3.2461345685152065e-01
loadshed[source_2] 8.6629931525599280e-02
loadshed[source_3] 3.2296723057807875e-01
loadshed[sink_1] 0
loadshed[sink_2] 0
loadshed[sink_3] 0
loadshed[sink_4] 0
loadshed[sink_5] 0
loadshed[sink_6] 0
loadshed[sink_7] 0
loadshed[sink_8] 0
loadshed[sink_9] 0
loadshed[sink_10] 0
loadshed[sink_11] 0
loadshed[sink_12] 8.2150915077307773e-01
loadshed[sink_13] 0
loadshed[sink_14] 0
loadshed[sink_15] 0
loadshed[sink_16] 0
loadshed[sink_17] 0
loadshed[sink_18] 0
loadshed[sink_19] 0
loadshed[sink_20] 0
loadshed[sink_21] 0
loadshed[sink_22] 0
loadshed[sink_23] 0
loadshed[sink_24] 0
loadshed[sink_25] 0
loadshed[sink_26] 0
loadshed[sink_27] 0
loadshed[sink_28] 0
loadshed[sink_29] 0
flow[source_1,sink_3] 2.0940850934183936e+02
flow[innode_1,sink_16] 1.6354166666666970e+01
flow[innode_6,sink_13] 7.4468680841105650e+00
flow[sink_13,sink_14] -8.9072985825561020e+00
flow[sink_14,sink_10] -2.5261465249222738e+01
flow[sink_25,sink_26] 1.7809455607518342e+02
flow[sink_26,sink_9] 1.5010656909673281e+02
flow[sink_9,sink_18] 1.3375240243006616e+02
flow[sink_26,sink_4] 1.1633820311783907e+01
flow[sink_4,sink_20] -1.6364596588806304e+01
flow[sink_18,sink_6] 1.1739823576339950e+02
flow[sink_25,innode_8] -1.7670017600850298e+02
flow[sink_6,sink_7] 6.8335735763399043e+01
flow[sink_6,sink_22] 3.2708333333333641e+01
flow[sink_7,sink_24] 3.5627402430065295e+01
flow[sink_22,sink_1] 1.6354166666666970e+01
flow[sink_24,sink_21] 1.9273235763398628e+01
flow[sink_21,sink_12] 2.9190690967319588e+00
flow[sink_7,sink_5] 1.6354166666667368e+01
flow[sink_5,sink_17] 0
flow[sink_17,sink_4] -1.1644250233923547e+01
flow[sink_17,sink_8] -4.7099164327431211e+00
flow[sink_3,sink_23] 16.3541666666697
flow[sink_8,sink_20] -2.1064083099409789e+01
flow[sink_25,sink_20] 5.3782846354882764e+01
flow[sink_25,sink_15] -7.8978261172341561e+01
flow[sink_15,sink_29] -1.1168659450569248e+02
flow[sink_29,sink_28] 1.6354166666667879e+01
flow[sink_29,sink_2] 0
flow[sink_2,sink_15] -1.6354166666684250e+01
flow[sink_29,innode_7] -1.4439492783902591e+02
flow[innode_4,sink_19] 1.0703229858256969e+02
flow[sink_19,innode_3] 3.6269781320334218e+01
flow[innode_4,innode_5] 0
flow[sink_27,innode_5] 0
flow[sink_27,sink_19] -1.6354166666679703e+01
flow[sink_10,sink_11] 3.2708333333333641e+01
flow[sink_10,innode_2] -38.0541839288891
flow[sink_10,innode_3] -3.6269781320334218e+01
flow[innode_6,sink_25] -7.4468680841105650e+00
flow[sink_11,innode_1] 1.6354166666666970e+01
flow[sink_19,innode_2] 38.0541839288891
flow[source_3,innode_4] 1.0703229858256969e+02
flow[source_2,innode_7] 1.4439492783902591e+02
flow[sink_3,innode_8] 1.7670017600850298e+02
pressure[innode_1] 7.4514076767396517e+01
pressure[innode_2] 7.6677098864568947e+01
pressure[innode_3] 7.6596783540942255e+01
pressure[innode_4] 81.01325
pressure[innode_5] 7.6325968867425445e+01
pressure[innode_6] 7.3496059209210074e+01
pressure[innode_7] 81.01325
pressure[innode_8] 8.0313277350220361e+01
pressure[source_1] 81.01325
pressure[source_2] 81.01325
pressure[source_3] 81.01325
pressure[sink_1] 4.1893178022745047e+01
pressure[sink_2] 7.3825787984271628e+01
pressure[sink_3] 8.0313277350220361e+01
pressure[sink_4] 5.9473810189856316e+01
pressure[sink_5] 3.6254598841947022e+01
pressure[sink_6] 4.3994255633132418e+01
pressure[sink_7] 4.3056168868841738e+01
pressure[sink_8] 5.9206522724713437e+01
pressure[sink_9] 5.1968698639137784e+01
pressure[sink_10] 7.4665778075000063e+01
pressure[sink_11] 7.4514076767396517e+01
pressure[sink_12] 1.01325
pressure[sink_13] 7.3455005869949645e+01
pressure[sink_14] 73.4709462394972
pressure[sink_15] 7.3879180734038073e+01
pressure[sink_16] 7.3492426932578837e+01
pressure[sink_17] 5.9028805341644038e+01
pressure[sink_18] 4.7129138068498506e+01
pressure[sink_19] 7.6677098864568947e+01
pressure[sink_20] 6.0674393086832431e+01
pressure[sink_21] 2.0520145458911996e+00
pressure[sink_22] 4.2956947165100054e+01
pressure[sink_23] 8.0148559338560574e+01
pressure[sink_24] 2.2654477249991882e+00
pressure[sink_25] 7.3496059209210074e+01
pressure[sink_26] 6.0952964213967626e+01
pressure[sink_27] 7.6325968867425445e+01
pressure[sink_28] 76.8559690731688
pressure[sink_29] 7.7151251346785969e+01
interdiction[source_1,sink_3] 0
interdiction[innode_1,sink_16] 0
interdiction[innode_6,sink_13] 0
interdiction[sink_13,sink_14] 0
interdiction[sink_14,sink_10] 0
interdiction[sink_25,sink_26] 0
interdiction[sink_26,sink_9] 0
interdiction[sink_9,sink_18] 0
interdiction[sink_26,sink_4] 0
interdiction[sink_4,sink_20] 0
interdiction[sink_18,sink_6] 0
interdiction[sink_25,innode_8] 0
interdiction[sink_6,sink_7] 0
interdiction[sink_6,sink_22] 0
interdiction[sink_7,sink_24] 0
interdiction[sink_22,sink_1] 0
interdiction[sink_24,sink_21] 0
interdiction[sink_21,sink_12] 0
interdiction[sink_7,sink_5] 0
interdiction[sink_5,sink_17] 1
interdiction[sink_17,sink_4] 0
interdiction[sink_17,sink_8] 0
interdiction[sink_3,sink_23] 0
interdiction[sink_8,sink_20] 0
interdiction[sink_25,sink_20] 0
interdiction[sink_25,sink_15] 0
interdiction[sink_15,sink_29] 0
interdiction[sink_29,sink_28] 0
interdiction[sink_29,sink_2] 1
interdiction[sink_2,sink_15] 0
interdiction[sink_29,innode_7] 0
interdiction[innode_4,sink_19] 0
interdiction[sink_19,innode_3] 0
interdiction[innode_4,innode_5] 1
interdiction[sink_27,innode_5] 0
interdiction[sink_27,sink_19] 0
interdiction[sink_10,sink_11] 0
interdiction[sink_10,innode_2] 0
interdiction[sink_10,innode_3] 0
interdiction[innode_6,sink_25] 0
interdiction[sink_11,innode_1] 0
interdiction[sink_19,innode_2] 0
interdiction[source_3,innode_4] 0
interdiction[source_2,innode_7] 0
interdiction[sink_3,innode_8] 0
WCcheckFlow[source_1,sink_3] 39
WCcheckFlow[innode_1,sink_16] 1
WCcheckFlow[innode_6,sink_13] 13
WCcheckFlow[sink_13,sink_14] 12
WCcheckFlow[sink_14,sink_10] 11
WCcheckFlow[sink_25,sink_26] 15
WCcheckFlow[sink_26,sink_9] 10
WCcheckFlow[sink_9,sink_18] 9
WCcheckFlow[sink_26,sink_4] 4
WCcheckFlow[sink_4,sink_20] 1
WCcheckFlow[sink_18,sink_6] 8
WCcheckFlow[sink_25,innode_8] -36
WCcheckFlow[sink_6,sink_7] 5
WCcheckFlow[sink_6,sink_22] 2
WCcheckFlow[sink_7,sink_24] 3
WCcheckFlow[sink_22,sink_1] 1
WCcheckFlow[sink_24,sink_21] 2
WCcheckFlow[sink_21,sink_12] 1
WCcheckFlow[sink_7,sink_5] 1
WCcheckFlow[sink_5,sink_17] 0
WCcheckFlow[sink_17,sink_4] -2
WCcheckFlow[sink_17,sink_8] 1
WCcheckFlow[sink_3,sink_23] 1
WCcheckFlow[sink_8,sink_20] 0
WCcheckFlow[sink_25,sink_20] 0
WCcheckFlow[sink_25,sink_15] 6
WCcheckFlow[sink_15,sink_29] 4
WCcheckFlow[sink_29,sink_28] 1
WCcheckFlow[sink_29,sink_2] 0
WCcheckFlow[sink_2,sink_15] -1
WCcheckFlow[sink_29,innode_7] 2
WCcheckFlow[innode_4,sink_19] -2
WCcheckFlow[sink_19,innode_3] -5
WCcheckFlow[innode_4,innode_5] 0
WCcheckFlow[sink_27,innode_5] 1
WCcheckFlow[sink_27,sink_19] -2
WCcheckFlow[sink_10,sink_11] 3
WCcheckFlow[sink_10,innode_2] 1
WCcheckFlow[sink_10,innode_3] 6
WCcheckFlow[innode_6,sink_25] -14
WCcheckFlow[sink_11,innode_1] 2
WCcheckFlow[sink_19,innode_2] 0
WCcheckFlow[source_3,innode_4] -1
WCcheckFlow[source_2,innode_7] -1
WCcheckFlow[sink_3,innode_8] 37
